data;
set K:= K1 K2 K3 K4 K5 K6 K7 K8 K9 K10 ;

set F:= F1 F2 F3 ;

set Q:= Q1 Q2 ;

param T:= 45;
param V: 
	K1  K2  K3  K4  K5  K6  K7  K8  K9  K10 :=
Q1	1   1   1   1   1   1   0   0   0   0   
Q2	0   0   0   0   0   0   1   1   1   1   
; # if resorce k is of type q

param TF:= 
K1 6
K2 6
K3 6
K4 6
K5 6
K6 6
K7 12
K8 12
K9 12
K10 12
; # number of continuous time slots resource can fly

param TR:= 
K1 2
K2 2
K3 2
K4 2
K5 2
K6 2
K7 4
K8 4
K9 4
K10 4
; #  number of continuous time slots resource k needs to rest between flights

param P:= 
K1 36
K2 36
K3 36
K4 36
K5 36
K6 36
K7 36
K8 36
K9 36
K10 36
; #  number of continuous time slots a pilot can be present including rest times for resource k 

param N:= 
K1 4
K2 4
K3 4
K4 4
K5 4
K6 4
K7 2
K8 2
K9 1
K10 2
; # max number of flights resource k can fly in the total time period

param A: 
	K1  K2  K3  K4  K5  K6  K7  K8  K9  K10 :=
1	1   1   1   1   1   1   1   1   0   1   
2	1   1   1   1   1   1   1   1   0   1   
3	1   1   1   1   1   1   1   1   0   1   
4	1   1   1   1   1   1   1   1   0   1   
5	1   1   1   1   1   1   1   1   0   1   
6	1   1   1   1   1   1   1   1   0   1   
7	1   1   1   1   1   1   1   1   0   1   
8	1   1   1   1   1   1   1   1   0   1   
9	1   1   1   1   1   1   1   1   0   1   
10	1   1   1   1   1   1   1   1   0   1   
11	1   1   1   1   1   1   1   1   0   1   
12	1   1   1   1   1   1   1   1   0   1   
13	1   1   1   1   1   1   1   1   0   1   
14	1   1   1   1   1   1   1   1   1   1   
15	1   1   1   1   1   1   1   1   1   1   
16	1   1   1   1   1   1   1   1   1   1   
17	1   1   1   1   1   1   1   1   1   1   
18	1   1   1   1   1   1   1   1   1   1   
19	1   1   1   1   1   1   1   1   1   1   
20	1   1   1   1   1   1   1   1   1   1   
21	1   1   1   1   1   1   1   1   1   1   
22	1   1   1   1   1   1   1   1   1   1   
23	1   1   1   1   1   1   1   1   1   1   
24	1   1   1   1   1   1   1   1   1   1   
25	1   1   1   1   1   1   1   1   1   1   
26	1   1   1   1   1   1   1   1   1   1   
27	1   1   1   1   1   1   1   1   1   1   
28	1   1   1   1   1   1   1   1   1   1   
29	1   1   1   1   1   1   1   1   1   1   
30	1   1   1   1   1   1   1   1   1   1   
31	1   1   1   1   1   1   1   1   1   1   
32	1   1   1   1   1   1   1   1   1   1   
33	1   1   1   1   1   1   1   1   1   1   
34	1   1   1   1   1   1   1   1   1   1   
35	1   1   1   1   1   1   1   1   1   1   
36	1   1   1   1   1   1   1   1   1   1   
37	1   1   1   1   1   1   1   1   1   1   
38	1   1   1   1   1   1   1   1   1   1   
39	1   1   1   1   1   1   1   1   1   1   
40	1   1   1   1   1   1   1   1   1   1   
41	1   1   1   1   1   1   1   1   1   1   
42	1   1   1   1   1   1   1   1   1   1   
43	1   1   1   1   1   1   1   1   1   1   
44	1   1   1   1   1   1   1   1   1   1   
45	1   1   1   1   1   1   1   1   1   1   
; # availability of resorce k in time slot t

param B: 
	F1  F2  F3  :=
Q1	0   0   0   
Q2	0   0   0   
; # if front f requires resources of type q

param U: 
	F1  F2  F3  :=
K1	0   0   0   
K2	0   0   0   
K3	0   0   0   
K4	0   0   0   
K5	0   0   0   
K6	0   0   0   
K7	2   2   2   
K8	0   0   0   
K9	1   1   1   
K10	0   0   0   
; # transit time of resource

param C:= 
K1 900
K2 900
K3 900
K4 1500
K5 4500
K6 2100
K7 5500
K8 5500
K9 5500
K10 5500
; #  water capacity of resource k

param S:= 
F1 10
F2 9
F3 8
; # max number of resources that can fly at front f in the same time slot

param D:= 

[*,*,F1 ]:  K1    K2    K3    K4    K5    K6    K7    K8    K9    K10   :=
1           1.90  1.90  1.90  1.90  1.52  1.90  1.14  1.14  1.14  1.14  
2           1.90  1.90  1.90  1.90  1.52  1.90  1.14  1.14  1.14  1.14  
3           1.90  1.90  1.90  1.90  1.52  1.90  1.14  1.14  1.14  1.14  
4           1.90  1.90  1.90  1.90  1.52  1.90  1.14  1.14  1.14  1.14  
5           1.90  1.90  1.90  1.90  1.52  1.90  1.14  1.14  1.14  1.14  
6           1.90  1.90  1.90  1.90  1.52  1.90  1.14  1.14  1.14  1.14  
7           1.90  1.90  1.90  1.90  1.52  1.90  1.14  1.14  1.14  1.14  
8           1.90  1.90  1.90  1.90  1.52  1.90  1.14  1.14  1.14  1.14  
9           1.90  1.90  1.90  1.90  1.52  1.90  1.14  1.14  1.14  1.14  
10          1.90  1.90  1.90  1.90  1.52  1.90  1.14  1.14  1.14  1.14  
11          1.90  1.90  1.90  1.90  1.52  1.90  1.14  1.14  1.14  1.14  
12          1.90  1.90  1.90  1.90  1.52  1.90  1.14  1.14  1.14  1.14  
13          1.90  1.90  1.90  1.90  1.52  1.90  1.14  1.14  1.14  1.14  
14          1.90  1.90  1.90  1.90  1.52  1.90  1.14  1.14  1.14  1.14  
15          1.90  1.90  1.90  1.90  1.52  1.90  1.14  1.14  1.14  1.14  
16          1.90  1.90  1.90  1.90  1.52  1.90  1.14  1.14  1.14  1.14  
17          1.90  1.90  1.90  1.90  1.52  1.90  1.14  1.14  1.14  1.14  
18          1.90  1.90  1.90  1.90  1.52  1.90  1.14  1.14  1.14  1.14  
19          1.90  1.90  1.90  1.90  1.52  1.90  1.14  1.14  1.14  1.14  
20          1.90  1.90  1.90  1.90  1.52  1.90  1.14  1.14  1.14  1.14  
21          1.90  1.90  1.90  1.90  1.52  1.90  1.14  1.14  1.14  1.14  
22          1.90  1.90  1.90  1.90  1.52  1.90  1.14  1.14  1.14  1.14  
23          1.90  1.90  1.90  1.90  1.52  1.90  1.14  1.14  1.14  1.14  
24          1.90  1.90  1.90  1.90  1.52  1.90  1.14  1.14  1.14  1.14  
25          1.81  1.81  1.81  1.81  1.44  1.81  1.08  1.08  1.08  1.08  
26          1.81  1.81  1.81  1.81  1.44  1.81  1.08  1.08  1.08  1.08  
27          1.81  1.81  1.81  1.81  1.44  1.81  1.08  1.08  1.08  1.08  
28          1.81  1.81  1.81  1.81  1.44  1.81  1.08  1.08  1.08  1.08  
29          1.81  1.81  1.81  1.81  1.44  1.81  1.08  1.08  1.08  1.08  
30          1.81  1.81  1.81  1.81  1.44  1.81  1.08  1.08  1.08  1.08  
31          1.81  1.81  1.81  1.81  1.44  1.81  1.08  1.08  1.08  1.08  
32          1.81  1.81  1.81  1.81  1.44  1.81  1.08  1.08  1.08  1.08  
33          1.81  1.81  1.81  1.81  1.44  1.81  1.08  1.08  1.08  1.08  
34          1.90  1.90  1.90  1.90  1.52  1.90  1.14  1.14  1.14  1.14  
35          1.90  1.90  1.90  1.90  1.52  1.90  1.14  1.14  1.14  1.14  
36          1.90  1.90  1.90  1.90  1.52  1.90  1.14  1.14  1.14  1.14  
37          1.90  1.90  1.90  1.90  1.52  1.90  1.14  1.14  1.14  1.14  
38          1.90  1.90  1.90  1.90  1.52  1.90  1.14  1.14  1.14  1.14  
39          1.90  1.90  1.90  1.90  1.52  1.90  1.14  1.14  1.14  1.14  
40          1.90  1.90  1.90  1.90  1.52  1.90  1.14  1.14  1.14  1.14  
41          1.90  1.90  1.90  1.90  1.52  1.90  1.14  1.14  1.14  1.14  
42          1.90  1.90  1.90  1.90  1.52  1.90  1.14  1.14  1.14  1.14  
43          1.90  1.90  1.90  1.90  1.52  1.90  1.14  1.14  1.14  1.14  
44          1.90  1.90  1.90  1.90  1.52  1.90  1.14  1.14  1.14  1.14  
45          1.90  1.90  1.90  1.90  1.52  1.90  1.14  1.14  1.14  1.14  

[*,*,F2 ]:  K1    K2    K3    K4    K5    K6    K7    K8    K9    K10   :=
1           1.60  1.60  1.60  1.60  1.28  1.60  0.96  0.96  0.96  0.96  
2           1.60  1.60  1.60  1.60  1.28  1.60  0.96  0.96  0.96  0.96  
3           1.60  1.60  1.60  1.60  1.28  1.60  0.96  0.96  0.96  0.96  
4           1.60  1.60  1.60  1.60  1.28  1.60  0.96  0.96  0.96  0.96  
5           1.60  1.60  1.60  1.60  1.28  1.60  0.96  0.96  0.96  0.96  
6           1.60  1.60  1.60  1.60  1.28  1.60  0.96  0.96  0.96  0.96  
7           1.60  1.60  1.60  1.60  1.28  1.60  0.96  0.96  0.96  0.96  
8           1.60  1.60  1.60  1.60  1.28  1.60  0.96  0.96  0.96  0.96  
9           1.60  1.60  1.60  1.60  1.28  1.60  0.96  0.96  0.96  0.96  
10          1.60  1.60  1.60  1.60  1.28  1.60  0.96  0.96  0.96  0.96  
11          1.60  1.60  1.60  1.60  1.28  1.60  0.96  0.96  0.96  0.96  
12          1.60  1.60  1.60  1.60  1.28  1.60  0.96  0.96  0.96  0.96  
13          1.60  1.60  1.60  1.60  1.28  1.60  0.96  0.96  0.96  0.96  
14          1.60  1.60  1.60  1.60  1.28  1.60  0.96  0.96  0.96  0.96  
15          1.60  1.60  1.60  1.60  1.28  1.60  0.96  0.96  0.96  0.96  
16          1.60  1.60  1.60  1.60  1.28  1.60  0.96  0.96  0.96  0.96  
17          1.60  1.60  1.60  1.60  1.28  1.60  0.96  0.96  0.96  0.96  
18          1.60  1.60  1.60  1.60  1.28  1.60  0.96  0.96  0.96  0.96  
19          1.60  1.60  1.60  1.60  1.28  1.60  0.96  0.96  0.96  0.96  
20          1.60  1.60  1.60  1.60  1.28  1.60  0.96  0.96  0.96  0.96  
21          1.60  1.60  1.60  1.60  1.28  1.60  0.96  0.96  0.96  0.96  
22          1.60  1.60  1.60  1.60  1.28  1.60  0.96  0.96  0.96  0.96  
23          1.60  1.60  1.60  1.60  1.28  1.60  0.96  0.96  0.96  0.96  
24          1.60  1.60  1.60  1.60  1.28  1.60  0.96  0.96  0.96  0.96  
25          1.52  1.52  1.52  1.52  1.21  1.52  0.91  0.91  0.91  0.91  
26          1.52  1.52  1.52  1.52  1.21  1.52  0.91  0.91  0.91  0.91  
27          1.52  1.52  1.52  1.52  1.21  1.52  0.91  0.91  0.91  0.91  
28          1.52  1.52  1.52  1.52  1.21  1.52  0.91  0.91  0.91  0.91  
29          1.52  1.52  1.52  1.52  1.21  1.52  0.91  0.91  0.91  0.91  
30          1.52  1.52  1.52  1.52  1.21  1.52  0.91  0.91  0.91  0.91  
31          1.52  1.52  1.52  1.52  1.21  1.52  0.91  0.91  0.91  0.91  
32          1.52  1.52  1.52  1.52  1.21  1.52  0.91  0.91  0.91  0.91  
33          1.52  1.52  1.52  1.52  1.21  1.52  0.91  0.91  0.91  0.91  
34          1.60  1.60  1.60  1.60  1.28  1.60  0.96  0.96  0.96  0.96  
35          1.60  1.60  1.60  1.60  1.28  1.60  0.96  0.96  0.96  0.96  
36          1.60  1.60  1.60  1.60  1.28  1.60  0.96  0.96  0.96  0.96  
37          1.60  1.60  1.60  1.60  1.28  1.60  0.96  0.96  0.96  0.96  
38          1.60  1.60  1.60  1.60  1.28  1.60  0.96  0.96  0.96  0.96  
39          1.60  1.60  1.60  1.60  1.28  1.60  0.96  0.96  0.96  0.96  
40          1.60  1.60  1.60  1.60  1.28  1.60  0.96  0.96  0.96  0.96  
41          1.60  1.60  1.60  1.60  1.28  1.60  0.96  0.96  0.96  0.96  
42          1.60  1.60  1.60  1.60  1.28  1.60  0.96  0.96  0.96  0.96  
43          1.60  1.60  1.60  1.60  1.28  1.60  0.96  0.96  0.96  0.96  
44          1.60  1.60  1.60  1.60  1.28  1.60  0.96  0.96  0.96  0.96  
45          1.60  1.60  1.60  1.60  1.28  1.60  0.96  0.96  0.96  0.96  

[*,*,F3 ]:  K1    K2    K3    K4    K5    K6    K7    K8    K9    K10   :=
1           1.59  1.59  1.59  1.59  1.26  1.59  0.95  0.95  0.95  0.95  
2           1.59  1.59  1.59  1.59  1.26  1.59  0.95  0.95  0.95  0.95  
3           1.59  1.59  1.59  1.59  1.26  1.59  0.95  0.95  0.95  0.95  
4           1.59  1.59  1.59  1.59  1.26  1.59  0.95  0.95  0.95  0.95  
5           1.59  1.59  1.59  1.59  1.26  1.59  0.95  0.95  0.95  0.95  
6           1.59  1.59  1.59  1.59  1.26  1.59  0.95  0.95  0.95  0.95  
7           1.59  1.59  1.59  1.59  1.26  1.59  0.95  0.95  0.95  0.95  
8           1.59  1.59  1.59  1.59  1.26  1.59  0.95  0.95  0.95  0.95  
9           1.59  1.59  1.59  1.59  1.26  1.59  0.95  0.95  0.95  0.95  
10          1.59  1.59  1.59  1.59  1.26  1.59  0.95  0.95  0.95  0.95  
11          1.59  1.59  1.59  1.59  1.26  1.59  0.95  0.95  0.95  0.95  
12          1.59  1.59  1.59  1.59  1.26  1.59  0.95  0.95  0.95  0.95  
13          1.59  1.59  1.59  1.59  1.26  1.59  0.95  0.95  0.95  0.95  
14          1.59  1.59  1.59  1.59  1.26  1.59  0.95  0.95  0.95  0.95  
15          1.59  1.59  1.59  1.59  1.26  1.59  0.95  0.95  0.95  0.95  
16          1.59  1.59  1.59  1.59  1.26  1.59  0.95  0.95  0.95  0.95  
17          1.59  1.59  1.59  1.59  1.26  1.59  0.95  0.95  0.95  0.95  
18          1.59  1.59  1.59  1.59  1.26  1.59  0.95  0.95  0.95  0.95  
19          1.59  1.59  1.59  1.59  1.26  1.59  0.95  0.95  0.95  0.95  
20          1.59  1.59  1.59  1.59  1.26  1.59  0.95  0.95  0.95  0.95  
21          1.59  1.59  1.59  1.59  1.26  1.59  0.95  0.95  0.95  0.95  
22          1.59  1.59  1.59  1.59  1.26  1.59  0.95  0.95  0.95  0.95  
23          1.59  1.59  1.59  1.59  1.26  1.59  0.95  0.95  0.95  0.95  
24          1.59  1.59  1.59  1.59  1.26  1.59  0.95  0.95  0.95  0.95  
25          1.51  1.51  1.51  1.51  1.20  1.51  0.90  0.90  0.90  0.90  
26          1.51  1.51  1.51  1.51  1.20  1.51  0.90  0.90  0.90  0.90  
27          1.51  1.51  1.51  1.51  1.20  1.51  0.90  0.90  0.90  0.90  
28          1.51  1.51  1.51  1.51  1.20  1.51  0.90  0.90  0.90  0.90  
29          1.51  1.51  1.51  1.51  1.20  1.51  0.90  0.90  0.90  0.90  
30          1.51  1.51  1.51  1.51  1.20  1.51  0.90  0.90  0.90  0.90  
31          1.51  1.51  1.51  1.51  1.20  1.51  0.90  0.90  0.90  0.90  
32          1.51  1.51  1.51  1.51  1.20  1.51  0.90  0.90  0.90  0.90  
33          1.51  1.51  1.51  1.51  1.20  1.51  0.90  0.90  0.90  0.90  
34          1.59  1.59  1.59  1.59  1.26  1.59  0.95  0.95  0.95  0.95  
35          1.59  1.59  1.59  1.59  1.26  1.59  0.95  0.95  0.95  0.95  
36          1.59  1.59  1.59  1.59  1.26  1.59  0.95  0.95  0.95  0.95  
37          1.59  1.59  1.59  1.59  1.26  1.59  0.95  0.95  0.95  0.95  
38          1.59  1.59  1.59  1.59  1.26  1.59  0.95  0.95  0.95  0.95  
39          1.59  1.59  1.59  1.59  1.26  1.59  0.95  0.95  0.95  0.95  
40          1.59  1.59  1.59  1.59  1.26  1.59  0.95  0.95  0.95  0.95  
41          1.59  1.59  1.59  1.59  1.26  1.59  0.95  0.95  0.95  0.95  
42          1.59  1.59  1.59  1.59  1.26  1.59  0.95  0.95  0.95  0.95  
43          1.59  1.59  1.59  1.59  1.26  1.59  0.95  0.95  0.95  0.95  
44          1.59  1.59  1.59  1.59  1.26  1.59  0.95  0.95  0.95  0.95  
45          1.59  1.59  1.59  1.59  1.26  1.59  0.95  0.95  0.95  0.95  
; # downloads resource k can do at front f in time t if intermediate time slot

param E:= 

[*,*,F1 ]:  K1    K2    K3    K4    K5    K6    K7    K8    K9    K10   :=
1           0.88  0.48  0.06  0.10  0.67  0.15  0.51  0.01  0.17  0.54  
2           0.88  0.48  0.06  0.10  0.67  0.15  0.51  0.01  0.17  0.54  
3           0.88  0.48  0.06  0.10  0.67  0.15  0.51  0.01  0.17  0.54  
4           0.88  0.48  0.06  0.10  0.67  0.15  0.51  0.01  0.17  0.54  
5           0.88  0.48  0.06  0.10  0.67  0.15  0.51  0.01  0.17  0.54  
6           0.88  0.48  0.06  0.10  0.67  0.15  0.51  0.01  0.17  0.54  
7           0.88  0.48  0.06  0.10  0.67  0.15  0.51  0.01  0.17  0.54  
8           0.88  0.48  0.06  0.10  0.67  0.15  0.51  0.01  0.17  0.54  
9           0.88  0.48  0.06  0.10  0.67  0.15  0.51  0.01  0.17  0.54  
10          0.88  0.48  0.06  0.10  0.67  0.15  0.51  0.01  0.17  0.54  
11          0.88  0.48  0.06  0.10  0.67  0.15  0.51  0.01  0.17  0.54  
12          0.88  0.48  0.06  0.10  0.67  0.15  0.51  0.01  0.17  0.54  
13          0.88  0.48  0.06  0.10  0.67  0.15  0.51  0.01  0.17  0.54  
14          0.88  0.48  0.06  0.10  0.67  0.15  0.51  0.01  0.17  0.54  
15          0.88  0.48  0.06  0.10  0.67  0.15  0.51  0.01  0.17  0.54  
16          0.88  0.48  0.06  0.10  0.67  0.15  0.51  0.01  0.17  0.54  
17          0.88  0.48  0.06  0.10  0.67  0.15  0.51  0.01  0.17  0.54  
18          0.88  0.48  0.06  0.10  0.67  0.15  0.51  0.01  0.17  0.54  
19          0.88  0.48  0.06  0.10  0.67  0.15  0.51  0.01  0.17  0.54  
20          0.88  0.48  0.06  0.10  0.67  0.15  0.51  0.01  0.17  0.54  
21          0.88  0.48  0.06  0.10  0.67  0.15  0.51  0.01  0.17  0.54  
22          0.88  0.48  0.06  0.10  0.67  0.15  0.51  0.01  0.17  0.54  
23          0.88  0.48  0.06  0.10  0.67  0.15  0.51  0.01  0.17  0.54  
24          0.88  0.48  0.06  0.10  0.67  0.15  0.51  0.01  0.17  0.54  
25          0.83  0.45  0.05  0.09  0.63  0.14  0.49  0.01  0.16  0.51  
26          0.83  0.45  0.05  0.09  0.63  0.14  0.49  0.01  0.16  0.51  
27          0.83  0.45  0.05  0.09  0.63  0.14  0.49  0.01  0.16  0.51  
28          0.83  0.45  0.05  0.09  0.63  0.14  0.49  0.01  0.16  0.51  
29          0.83  0.45  0.05  0.09  0.63  0.14  0.49  0.01  0.16  0.51  
30          0.83  0.45  0.05  0.09  0.63  0.14  0.49  0.01  0.16  0.51  
31          0.83  0.45  0.05  0.09  0.63  0.14  0.49  0.01  0.16  0.51  
32          0.83  0.45  0.05  0.09  0.63  0.14  0.49  0.01  0.16  0.51  
33          0.83  0.45  0.05  0.09  0.63  0.14  0.49  0.01  0.16  0.51  
34          0.88  0.48  0.06  0.10  0.67  0.15  0.51  0.01  0.17  0.54  
35          0.88  0.48  0.06  0.10  0.67  0.15  0.51  0.01  0.17  0.54  
36          0.88  0.48  0.06  0.10  0.67  0.15  0.51  0.01  0.17  0.54  
37          0.88  0.48  0.06  0.10  0.67  0.15  0.51  0.01  0.17  0.54  
38          0.88  0.48  0.06  0.10  0.67  0.15  0.51  0.01  0.17  0.54  
39          0.88  0.48  0.06  0.10  0.67  0.15  0.51  0.01  0.17  0.54  
40          0.88  0.48  0.06  0.10  0.67  0.15  0.51  0.01  0.17  0.54  
41          0.88  0.48  0.06  0.10  0.67  0.15  0.51  0.01  0.17  0.54  
42          0.88  0.48  0.06  0.10  0.67  0.15  0.51  0.01  0.17  0.54  
43          0.88  0.48  0.06  0.10  0.67  0.15  0.51  0.01  0.17  0.54  
44          0.88  0.48  0.06  0.10  0.67  0.15  0.51  0.01  0.17  0.54  
45          0.88  0.48  0.06  0.10  0.67  0.15  0.51  0.01  0.17  0.54  

[*,*,F2 ]:  K1    K2    K3    K4    K5    K6    K7    K8    K9    K10   :=
1           0.87  0.32  0.02  0.10  0.68  0.11  0.36  0.00  0.12  0.48  
2           0.87  0.32  0.02  0.10  0.68  0.11  0.36  0.00  0.12  0.48  
3           0.87  0.32  0.02  0.10  0.68  0.11  0.36  0.00  0.12  0.48  
4           0.87  0.32  0.02  0.10  0.68  0.11  0.36  0.00  0.12  0.48  
5           0.87  0.32  0.02  0.10  0.68  0.11  0.36  0.00  0.12  0.48  
6           0.87  0.32  0.02  0.10  0.68  0.11  0.36  0.00  0.12  0.48  
7           0.87  0.32  0.02  0.10  0.68  0.11  0.36  0.00  0.12  0.48  
8           0.87  0.32  0.02  0.10  0.68  0.11  0.36  0.00  0.12  0.48  
9           0.87  0.32  0.02  0.10  0.68  0.11  0.36  0.00  0.12  0.48  
10          0.87  0.32  0.02  0.10  0.68  0.11  0.36  0.00  0.12  0.48  
11          0.87  0.32  0.02  0.10  0.68  0.11  0.36  0.00  0.12  0.48  
12          0.87  0.32  0.02  0.10  0.68  0.11  0.36  0.00  0.12  0.48  
13          0.87  0.32  0.02  0.10  0.68  0.11  0.36  0.00  0.12  0.48  
14          0.87  0.32  0.02  0.10  0.68  0.11  0.36  0.00  0.12  0.48  
15          0.87  0.32  0.02  0.10  0.68  0.11  0.36  0.00  0.12  0.48  
16          0.87  0.32  0.02  0.10  0.68  0.11  0.36  0.00  0.12  0.48  
17          0.87  0.32  0.02  0.10  0.68  0.11  0.36  0.00  0.12  0.48  
18          0.87  0.32  0.02  0.10  0.68  0.11  0.36  0.00  0.12  0.48  
19          0.87  0.32  0.02  0.10  0.68  0.11  0.36  0.00  0.12  0.48  
20          0.87  0.32  0.02  0.10  0.68  0.11  0.36  0.00  0.12  0.48  
21          0.87  0.32  0.02  0.10  0.68  0.11  0.36  0.00  0.12  0.48  
22          0.87  0.32  0.02  0.10  0.68  0.11  0.36  0.00  0.12  0.48  
23          0.87  0.32  0.02  0.10  0.68  0.11  0.36  0.00  0.12  0.48  
24          0.87  0.32  0.02  0.10  0.68  0.11  0.36  0.00  0.12  0.48  
25          0.82  0.30  0.02  0.09  0.64  0.11  0.35  0.00  0.12  0.46  
26          0.82  0.30  0.02  0.09  0.64  0.11  0.35  0.00  0.12  0.46  
27          0.82  0.30  0.02  0.09  0.64  0.11  0.35  0.00  0.12  0.46  
28          0.82  0.30  0.02  0.09  0.64  0.11  0.35  0.00  0.12  0.46  
29          0.82  0.30  0.02  0.09  0.64  0.11  0.35  0.00  0.12  0.46  
30          0.82  0.30  0.02  0.09  0.64  0.11  0.35  0.00  0.12  0.46  
31          0.82  0.30  0.02  0.09  0.64  0.11  0.35  0.00  0.12  0.46  
32          0.82  0.30  0.02  0.09  0.64  0.11  0.35  0.00  0.12  0.46  
33          0.82  0.30  0.02  0.09  0.64  0.11  0.35  0.00  0.12  0.46  
34          0.87  0.32  0.02  0.10  0.68  0.11  0.36  0.00  0.12  0.48  
35          0.87  0.32  0.02  0.10  0.68  0.11  0.36  0.00  0.12  0.48  
36          0.87  0.32  0.02  0.10  0.68  0.11  0.36  0.00  0.12  0.48  
37          0.87  0.32  0.02  0.10  0.68  0.11  0.36  0.00  0.12  0.48  
38          0.87  0.32  0.02  0.10  0.68  0.11  0.36  0.00  0.12  0.48  
39          0.87  0.32  0.02  0.10  0.68  0.11  0.36  0.00  0.12  0.48  
40          0.87  0.32  0.02  0.10  0.68  0.11  0.36  0.00  0.12  0.48  
41          0.87  0.32  0.02  0.10  0.68  0.11  0.36  0.00  0.12  0.48  
42          0.87  0.32  0.02  0.10  0.68  0.11  0.36  0.00  0.12  0.48  
43          0.87  0.32  0.02  0.10  0.68  0.11  0.36  0.00  0.12  0.48  
44          0.87  0.32  0.02  0.10  0.68  0.11  0.36  0.00  0.12  0.48  
45          0.87  0.32  0.02  0.10  0.68  0.11  0.36  0.00  0.12  0.48  

[*,*,F3 ]:  K1    K2    K3    K4    K5    K6    K7    K8    K9    K10   :=
1           0.75  0.43  0.02  0.05  0.56  0.17  0.42  0.03  0.09  0.45  
2           0.75  0.43  0.02  0.05  0.56  0.17  0.42  0.03  0.09  0.45  
3           0.75  0.43  0.02  0.05  0.56  0.17  0.42  0.03  0.09  0.45  
4           0.75  0.43  0.02  0.05  0.56  0.17  0.42  0.03  0.09  0.45  
5           0.75  0.43  0.02  0.05  0.56  0.17  0.42  0.03  0.09  0.45  
6           0.75  0.43  0.02  0.05  0.56  0.17  0.42  0.03  0.09  0.45  
7           0.75  0.43  0.02  0.05  0.56  0.17  0.42  0.03  0.09  0.45  
8           0.75  0.43  0.02  0.05  0.56  0.17  0.42  0.03  0.09  0.45  
9           0.75  0.43  0.02  0.05  0.56  0.17  0.42  0.03  0.09  0.45  
10          0.75  0.43  0.02  0.05  0.56  0.17  0.42  0.03  0.09  0.45  
11          0.75  0.43  0.02  0.05  0.56  0.17  0.42  0.03  0.09  0.45  
12          0.75  0.43  0.02  0.05  0.56  0.17  0.42  0.03  0.09  0.45  
13          0.75  0.43  0.02  0.05  0.56  0.17  0.42  0.03  0.09  0.45  
14          0.75  0.43  0.02  0.05  0.56  0.17  0.42  0.03  0.09  0.45  
15          0.75  0.43  0.02  0.05  0.56  0.17  0.42  0.03  0.09  0.45  
16          0.75  0.43  0.02  0.05  0.56  0.17  0.42  0.03  0.09  0.45  
17          0.75  0.43  0.02  0.05  0.56  0.17  0.42  0.03  0.09  0.45  
18          0.75  0.43  0.02  0.05  0.56  0.17  0.42  0.03  0.09  0.45  
19          0.75  0.43  0.02  0.05  0.56  0.17  0.42  0.03  0.09  0.45  
20          0.75  0.43  0.02  0.05  0.56  0.17  0.42  0.03  0.09  0.45  
21          0.75  0.43  0.02  0.05  0.56  0.17  0.42  0.03  0.09  0.45  
22          0.75  0.43  0.02  0.05  0.56  0.17  0.42  0.03  0.09  0.45  
23          0.75  0.43  0.02  0.05  0.56  0.17  0.42  0.03  0.09  0.45  
24          0.75  0.43  0.02  0.05  0.56  0.17  0.42  0.03  0.09  0.45  
25          0.71  0.41  0.02  0.05  0.53  0.17  0.40  0.03  0.09  0.42  
26          0.71  0.41  0.02  0.05  0.53  0.17  0.40  0.03  0.09  0.42  
27          0.71  0.41  0.02  0.05  0.53  0.17  0.40  0.03  0.09  0.42  
28          0.71  0.41  0.02  0.05  0.53  0.17  0.40  0.03  0.09  0.42  
29          0.71  0.41  0.02  0.05  0.53  0.17  0.40  0.03  0.09  0.42  
30          0.71  0.41  0.02  0.05  0.53  0.17  0.40  0.03  0.09  0.42  
31          0.71  0.41  0.02  0.05  0.53  0.17  0.40  0.03  0.09  0.42  
32          0.71  0.41  0.02  0.05  0.53  0.17  0.40  0.03  0.09  0.42  
33          0.71  0.41  0.02  0.05  0.53  0.17  0.40  0.03  0.09  0.42  
34          0.75  0.43  0.02  0.05  0.56  0.17  0.42  0.03  0.09  0.45  
35          0.75  0.43  0.02  0.05  0.56  0.17  0.42  0.03  0.09  0.45  
36          0.75  0.43  0.02  0.05  0.56  0.17  0.42  0.03  0.09  0.45  
37          0.75  0.43  0.02  0.05  0.56  0.17  0.42  0.03  0.09  0.45  
38          0.75  0.43  0.02  0.05  0.56  0.17  0.42  0.03  0.09  0.45  
39          0.75  0.43  0.02  0.05  0.56  0.17  0.42  0.03  0.09  0.45  
40          0.75  0.43  0.02  0.05  0.56  0.17  0.42  0.03  0.09  0.45  
41          0.75  0.43  0.02  0.05  0.56  0.17  0.42  0.03  0.09  0.45  
42          0.75  0.43  0.02  0.05  0.56  0.17  0.42  0.03  0.09  0.45  
43          0.75  0.43  0.02  0.05  0.56  0.17  0.42  0.03  0.09  0.45  
44          0.75  0.43  0.02  0.05  0.56  0.17  0.42  0.03  0.09  0.45  
45          0.75  0.43  0.02  0.05  0.56  0.17  0.42  0.03  0.09  0.45  
; # downloads resource k can do at front f in time t if starting or ending flight

param W: 
	F1        F2        F3        :=
1	1245.74   622.87    622.87    
2	4982.98   2491.49   2491.49   
3	4982.98   2491.49   2491.49   
4	4982.98   2491.49   2491.49   
5	4982.98   2491.49   2491.49   
6	4982.98   2491.49   2491.49   
7	4982.98   2491.49   2491.49   
8	4982.98   2491.49   2491.49   
9	4982.98   2491.49   2491.49   
10	4982.98   2491.49   2491.49   
11	4982.98   2491.49   2491.49   
12	4982.98   2491.49   2491.49   
13	4982.98   2491.49   2491.49   
14	4982.98   2491.49   2491.49   
15	4982.98   2491.49   2491.49   
16	4982.98   2491.49   2491.49   
17	4982.98   2491.49   2491.49   
18	4982.98   2491.49   2491.49   
19	2214.66   1107.33   1107.33   
20	2214.66   1107.33   1107.33   
21	2214.66   1107.33   1107.33   
22	2214.66   1107.33   1107.33   
23	2214.66   1107.33   1107.33   
24	2214.66   1107.33   1107.33   
25	2214.66   1107.33   1107.33   
26	2214.66   1107.33   1107.33   
27	2214.66   1107.33   1107.33   
28	2214.66   1107.33   1107.33   
29	2214.66   1107.33   1107.33   
30	2214.66   1107.33   1107.33   
31	2214.66   1107.33   1107.33   
32	2214.66   1107.33   1107.33   
33	2214.66   1107.33   1107.33   
34	2214.66   1107.33   1107.33   
35	2214.66   1107.33   1107.33   
36	2214.66   1107.33   1107.33   
37	2214.66   1107.33   1107.33   
38	2214.66   1107.33   1107.33   
39	2214.66   1107.33   1107.33   
40	2214.66   1107.33   1107.33   
41	2214.66   1107.33   1107.33   
42	2214.66   1107.33   1107.33   
43	2214.66   1107.33   1107.33   
44	2214.66   1107.33   1107.33   
45	553.66    276.83    276.83    
; # water needed at front f in time slot t

param M := 100000000; 

param a1:= 10000000;

param a2:= 100;

param a3:= 0.0001;
